p cnf 239 573
1 0
17 -18 0
-17 18 0
19 -20 0
-19 20 0
16 -17 0
16 -19 0
-16 17 19 0
22 18 0
-22 -18 0
23 -20 0
-23 20 0
21 -22 0
21 -23 0
-21 22 23 0
-15 16 0
-15 21 0
15 -16 -21 0
26 -27 0
-26 27 0
28 -29 0
-28 29 0
25 -26 0
25 -28 0
-25 26 28 0
31 27 0
-31 -27 0
32 -29 0
-32 29 0
30 -31 0
30 -32 0
-30 31 32 0
-24 25 0
-24 30 0
24 -25 -30 0
14 -15 0
14 -24 0
-14 15 24 0
35 -36 0
-35 36 0
37 -38 0
-37 38 0
34 -35 0
34 -37 0
-34 35 37 0
40 36 0
-40 -36 0
41 -38 0
-41 38 0
39 -40 0
39 -41 0
-39 40 41 0
-33 34 0
-33 39 0
33 -34 -39 0
13 -14 0
13 -33 0
-13 14 33 0
44 -45 0
-44 45 0
46 -47 0
-46 47 0
43 -44 0
43 -46 0
-43 44 46 0
49 45 0
-49 -45 0
50 -47 0
-50 47 0
48 -49 0
48 -50 0
-48 49 50 0
-42 43 0
-42 48 0
42 -43 -48 0
12 -13 0
12 -42 0
-12 13 42 0
53 -54 0
-53 54 0
55 -56 0
-55 56 0
52 -53 0
52 -55 0
-52 53 55 0
58 54 0
-58 -54 0
59 -56 0
-59 56 0
57 -58 0
57 -59 0
-57 58 59 0
-51 52 0
-51 57 0
51 -52 -57 0
11 -12 0
11 -51 0
-11 12 51 0
-60 11 0
60 -11 0
-10 11 0
-10 60 0
10 -11 -60 0
-61 11 0
61 -11 0
-9 10 0
-9 61 0
9 -10 -61 0
-62 11 0
62 -11 0
-8 9 0
-8 62 0
8 -9 -62 0
-63 11 0
63 -11 0
-7 8 0
-7 63 0
7 -8 -63 0
68 -54 0
-68 54 0
69 56 0
-69 -56 0
-67 68 0
-67 69 0
67 -68 -69 0
71 -18 0
-71 18 0
72 20 0
-72 -20 0
-70 71 0
-70 72 0
70 -71 -72 0
-66 67 0
-66 70 0
66 -67 -70 0
75 54 0
-75 -54 0
76 -56 0
-76 56 0
-74 75 0
-74 76 0
74 -75 -76 0
-77 70 0
77 -70 0
-73 74 0
-73 77 0
73 -74 -77 0
65 -66 0
65 -73 0
-65 66 73 0
80 54 0
-80 -54 0
81 56 0
-81 -56 0
-79 80 0
-79 81 0
79 -80 -81 0
83 18 0
-83 -18 0
84 -20 0
-84 20 0
-82 83 0
-82 84 0
82 -83 -84 0
-78 79 0
-78 82 0
78 -79 -82 0
64 -65 0
64 -78 0
-64 65 78 0
-6 7 0
-6 64 0
6 -7 -64 0
-90 11 0
90 -11 0
-94 24 0
94 -24 0
-95 33 0
95 -33 0
93 -94 0
93 -95 0
-93 94 95 0
-96 42 0
96 -42 0
92 -93 0
92 -96 0
-92 93 96 0
-97 51 0
97 -51 0
91 -92 0
91 -97 0
-91 92 97 0
-89 90 0
-89 91 0
89 -90 -91 0
-98 91 0
98 -91 0
-88 89 0
-88 98 0
88 -89 -98 0
-99 91 0
99 -91 0
-87 88 0
-87 99 0
87 -88 -99 0
-100 91 0
100 -91 0
-86 87 0
-86 100 0
86 -87 -100 0
-104 67 0
104 -67 0
106 -27 0
-106 27 0
107 29 0
-107 -29 0
-105 106 0
-105 107 0
105 -106 -107 0
-103 104 0
-103 105 0
103 -104 -105 0
-109 74 0
109 -74 0
-110 105 0
110 -105 0
-108 109 0
-108 110 0
108 -109 -110 0
102 -103 0
102 -108 0
-102 103 108 0
-112 79 0
112 -79 0
114 27 0
-114 -27 0
115 -29 0
-115 29 0
-113 114 0
-113 115 0
113 -114 -115 0
-111 112 0
-111 113 0
111 -112 -113 0
101 -102 0
101 -111 0
-101 102 111 0
-85 86 0
-85 101 0
85 -86 -101 0
5 -6 0
5 -85 0
-5 6 85 0
-120 89 0
120 -89 0
-123 33 0
123 -33 0
-124 42 0
124 -42 0
122 -123 0
122 -124 0
-122 123 124 0
-125 51 0
125 -51 0
121 -122 0
121 -125 0
-121 122 125 0
-119 120 0
-119 121 0
119 -120 -121 0
-126 121 0
126 -121 0
-118 119 0
-118 126 0
118 -119 -126 0
-127 121 0
127 -121 0
-117 118 0
-117 127 0
117 -118 -127 0
-131 67 0
131 -67 0
133 -36 0
-133 36 0
134 38 0
-134 -38 0
-132 133 0
-132 134 0
132 -133 -134 0
-130 131 0
-130 132 0
130 -131 -132 0
-136 74 0
136 -74 0
-137 132 0
137 -132 0
-135 136 0
-135 137 0
135 -136 -137 0
129 -130 0
129 -135 0
-129 130 135 0
-139 79 0
139 -79 0
141 36 0
-141 -36 0
142 -38 0
-142 38 0
-140 141 0
-140 142 0
140 -141 -142 0
-138 139 0
-138 140 0
138 -139 -140 0
128 -129 0
128 -138 0
-128 129 138 0
-116 117 0
-116 128 0
116 -117 -128 0
4 -5 0
4 -116 0
-4 5 116 0
-146 119 0
146 -119 0
-148 42 0
148 -42 0
-149 51 0
149 -51 0
147 -148 0
147 -149 0
-147 148 149 0
-145 146 0
-145 147 0
145 -146 -147 0
-150 147 0
150 -147 0
-144 145 0
-144 150 0
144 -145 -150 0
-154 67 0
154 -67 0
156 -45 0
-156 45 0
157 47 0
-157 -47 0
-155 156 0
-155 157 0
155 -156 -157 0
-153 154 0
-153 155 0
153 -154 -155 0
-159 74 0
159 -74 0
-160 155 0
160 -155 0
-158 159 0
-158 160 0
158 -159 -160 0
152 -153 0
152 -158 0
-152 153 158 0
-162 79 0
162 -79 0
164 45 0
-164 -45 0
165 -47 0
-165 47 0
-163 164 0
-163 165 0
163 -164 -165 0
-161 162 0
-161 163 0
161 -162 -163 0
151 -152 0
151 -161 0
-151 152 161 0
-143 144 0
-143 151 0
143 -144 -151 0
3 -4 0
3 -143 0
-3 4 143 0
-168 145 0
168 -145 0
-169 51 0
169 -51 0
-167 168 0
-167 169 0
167 -168 -169 0
-173 67 0
173 -67 0
-174 67 0
174 -67 0
-172 173 0
-172 174 0
172 -173 -174 0
-176 74 0
176 -74 0
-177 67 0
177 -67 0
-175 176 0
-175 177 0
175 -176 -177 0
171 -172 0
171 -175 0
-171 172 175 0
-179 79 0
179 -79 0
-180 74 0
180 -74 0
-178 179 0
-178 180 0
178 -179 -180 0
170 -171 0
170 -178 0
-170 171 178 0
-166 167 0
-166 170 0
166 -167 -170 0
2 -3 0
2 -166 0
-2 3 166 0
-188 70 0
188 -70 0
-189 105 0
189 -105 0
-187 188 0
-187 189 0
187 -188 -189 0
-191 82 0
191 -82 0
-192 105 0
192 -105 0
-190 191 0
-190 192 0
190 -191 -192 0
186 -187 0
186 -190 0
-186 187 190 0
195 18 0
-195 -18 0
196 20 0
-196 -20 0
-194 195 0
-194 196 0
194 -195 -196 0
-197 113 0
197 -113 0
-193 194 0
-193 197 0
193 -194 -197 0
185 -186 0
185 -193 0
-185 186 193 0
-201 105 0
201 -105 0
-202 132 0
202 -132 0
-200 201 0
-200 202 0
200 -201 -202 0
-204 113 0
204 -113 0
-205 132 0
205 -132 0
-203 204 0
-203 205 0
203 -204 -205 0
199 -200 0
199 -203 0
-199 200 203 0
208 27 0
-208 -27 0
209 29 0
-209 -29 0
-207 208 0
-207 209 0
207 -208 -209 0
-210 140 0
210 -140 0
-206 207 0
-206 210 0
206 -207 -210 0
198 -199 0
198 -206 0
-198 199 206 0
-184 185 0
-184 198 0
184 -185 -198 0
-214 132 0
214 -132 0
-215 155 0
215 -155 0
-213 214 0
-213 215 0
213 -214 -215 0
-217 140 0
217 -140 0
-218 155 0
218 -155 0
-216 217 0
-216 218 0
216 -217 -218 0
212 -213 0
212 -216 0
-212 213 216 0
221 36 0
-221 -36 0
222 38 0
-222 -38 0
-220 221 0
-220 222 0
220 -221 -222 0
-223 163 0
223 -163 0
-219 220 0
-219 223 0
219 -220 -223 0
211 -212 0
211 -219 0
-211 212 219 0
-183 184 0
-183 211 0
183 -184 -211 0
-227 155 0
227 -155 0
-228 67 0
228 -67 0
-226 227 0
-226 228 0
226 -227 -228 0
-230 163 0
230 -163 0
-231 67 0
231 -67 0
-229 230 0
-229 231 0
229 -230 -231 0
225 -226 0
225 -229 0
-225 226 229 0
234 45 0
-234 -45 0
235 47 0
-235 -47 0
-233 234 0
-233 235 0
233 -234 -235 0
-236 74 0
236 -74 0
-232 233 0
-232 236 0
232 -233 -236 0
224 -225 0
224 -232 0
-224 225 232 0
-182 183 0
-182 224 0
182 -183 -224 0
-238 194 0
238 -194 0
-239 194 0
239 -194 0
237 -238 0
237 -239 0
-237 238 239 0
-181 182 0
-181 237 0
181 -182 -237 0
-1 2 0
-1 181 0
1 -2 -181 0
